
Log started (V12.10.0.0) Mon Apr  5 22:28:49 2021


Problem 'asset.lp' read.
Read time = 0.01 sec. (0.57 ticks)
New value for default parallel thread count: 1
New value for time limit in seconds: 150
Version identifier: 12.10.0.0 | 2019-11-26 | 843d4de
CPXPARAM_Threads                                 1
CPXPARAM_TimeLimit                               150
Found incumbent of value 0.000000 after 0.00 sec. (0.15 ticks)
Tried aggregator 3 times.
MIP Presolve eliminated 1714 rows and 682 columns.
MIP Presolve modified 4633 coefficients.
Aggregator did 1677 substitutions.
Reduced MIP has 1815 rows, 2390 columns, and 10509 nonzeros.
Reduced MIP has 2108 binaries, 227 generals, 0 SOSs, and 0 indicators.
Presolve time = 0.03 sec. (23.90 ticks)
Probing fixed 50 vars, tightened 2 bounds.
Probing time = 0.02 sec. (11.10 ticks)
Cover probing fixed 0 vars, tightened 40 bounds.
Tried aggregator 1 time.
Detecting symmetries...
MIP Presolve eliminated 63 rows and 63 columns.
MIP Presolve modified 612 coefficients.
Reduced MIP has 1752 rows, 2327 columns, and 9926 nonzeros.
Reduced MIP has 2047 binaries, 225 generals, 0 SOSs, and 0 indicators.
Presolve time = 0.01 sec. (9.23 ticks)
Probing time = 0.00 sec. (2.91 ticks)
Clique table members: 6297.
MIP emphasis: balance optimality and feasibility.
MIP search method: dynamic search.
Parallel mode: none, using 1 thread.
Root relaxation solution time = 0.03 sec. (42.65 ticks)

        Nodes                                         Cuts/
   Node  Left     Objective  IInf  Best Integer    Best Bound    ItCnt     Gap

*     0+    0                            0.0000      332.0000              --- 
      0     0      327.0000   332        0.0000      327.0000      764     --- 
      0     0      326.0000   332        0.0000     Cuts: 538     1544     --- 
      0     0      326.0000   332        0.0000     Cuts: 538     2661     --- 
      0     0      326.0000   332        0.0000     Cuts: 168     3353     --- 
      0     0      326.0000   332        0.0000     Cuts: 538     4174     --- 
*     0+    0                          148.0000      326.0000           120.27%
*     0+    0                          156.0000      326.0000           108.97%
      0     0        cutoff            156.0000      326.0000     4174  108.97%
      0     2      326.0000   314      156.0000      326.0000     4174  108.97%
Elapsed time = 2.52 sec. (3239.52 ticks, tree = 0.01 MB, solutions = 2)
     10    12      326.0000   302      156.0000      326.0000     6325  108.97%
     12    14      326.0000   316      156.0000      326.0000     8789  108.97%
     19    21      323.0000   313      156.0000      326.0000    11312  108.97%
     22    24      326.0000   312      156.0000      326.0000    11899  108.97%
     25    27      323.0000   328      156.0000      326.0000    14740  108.97%
     29    31      323.0000   345      156.0000      326.0000    17520  108.97%
     35    36      324.6667   367      156.0000      326.0000    19866  108.97%
     41    42      322.0000   260      156.0000      326.0000    20359  108.97%
     60    61      320.0000   254      156.0000      326.0000    22917  108.97%
    125   121      292.5000   226      156.0000      326.0000    32734  108.97%
Elapsed time = 5.05 sec. (7057.18 ticks, tree = 1.43 MB, solutions = 2)
    232   225      256.0000   138      156.0000      326.0000    44393  108.97%
    320   295      323.0000   265      156.0000      326.0000    50180  108.97%
    375   350      311.4838   230      156.0000      326.0000    59690  108.97%
    429   396      325.0560   402      156.0000      326.0000    69468  108.97%
    439   406      324.0000   380      156.0000      326.0000    75356  108.97%
    480   447      320.7868   260      156.0000      326.0000    79614  108.97%
*   499+  464                          164.0000      326.0000            98.78%
*   499+  464                          166.0000      326.0000            96.39%
*   499+  464                          168.0000      326.0000            94.05%
*   499+  464                          178.0000      326.0000            83.15%
    499   466      326.0000   362      178.0000      326.0000    81862   83.15%
    500   467      326.0000   375      178.0000      326.0000    82563   83.15%
    540   507      326.0000   297      178.0000      326.0000    85969   83.15%

Performing restart 1

Repeating presolve.
Tried aggregator 1 time.
MIP Presolve modified 2120 coefficients.
Reduced MIP has 1752 rows, 2327 columns, and 8446 nonzeros.
Reduced MIP has 2047 binaries, 225 generals, 0 SOSs, and 0 indicators.
Presolve time = 0.01 sec. (7.24 ticks)
Tried aggregator 1 time.
Reduced MIP has 1752 rows, 2327 columns, and 8446 nonzeros.
Reduced MIP has 2047 binaries, 225 generals, 0 SOSs, and 0 indicators.
Presolve time = 0.01 sec. (5.86 ticks)
Represolve time = 0.05 sec. (35.93 ticks)
    609     0      320.0132   474      178.0000     Cuts: 538   100770   79.78%
    609     0      316.5932   474      178.0000     Cuts: 448   102520   77.86%
    609     0      314.2604   474      178.0000     Cuts: 374   104046   76.55%
    609     0      313.3558   474      178.0000     Cuts: 381   105760   76.04%
    609     0      312.3522   474      178.0000     Cuts: 313   108055   75.48%
    609     0      311.6139   474      178.0000     Cuts: 311   109657   75.06%
    609     0      310.7869   474      178.0000     Cuts: 310   110915   74.60%
    609     0      310.0446   474      178.0000     Cuts: 286   112458   74.18%
    609     0      309.4918   474      178.0000     Cuts: 279   114299   73.87%
    609     0      308.7876   474      178.0000     Cuts: 294   116733   73.48%
    609     0      308.6650   474      178.0000     Cuts: 215   117804   73.41%
    609     0      308.5342   474      178.0000     Cuts: 152   119573   73.33%
    609     0      308.3682   474      178.0000     Cuts: 191   120510   73.24%
    609     0      308.1817   474      178.0000     Cuts: 179   121715   73.14%
    609     0      308.0514   474      178.0000     Cuts: 224   122528   73.06%
    609     0      307.9416   474      178.0000     Cuts: 209   123549   73.00%
    609     0      307.7133   474      178.0000     Cuts: 195   124245   72.87%
    609     0      307.5564   474      178.0000     Cuts: 181   125322   72.78%
    609     0      307.4071   474      178.0000     Cuts: 204   126279   72.70%
    609     0      307.2110   474      178.0000     Cuts: 247   127406   72.59%
    609     0      307.1599   474      178.0000     Cuts: 185   128019   72.56%
    609     0      307.0984   474      178.0000     Cuts: 126   128611   72.53%
    609     0      307.0791   474      178.0000     Cuts: 148   129174   72.52%
    609     0      307.0660   474      178.0000     Cuts: 113   129385   72.51%
    609     0      307.0358   474      178.0000     Cuts: 120   129829   72.49%
    609     0      307.0220   474      178.0000     Cuts: 116   130435   72.48%
    609     2      307.0220   516      178.0000      307.0218   130435   72.48%
Elapsed time = 36.72 sec. (48511.35 ticks, tree = 0.01 MB, solutions = 6)
    612     5      306.8968   498      178.0000      306.9249   132009   72.43%
    615     8      306.8335   483      178.0000      306.9249   134597   72.43%
    619    12      305.8411   482      178.0000      306.9249   139143   72.43%
    623    16      304.6154   458      178.0000      306.9249   143793   72.43%
    629    22      305.6014   462      178.0000      306.9249   147100   72.43%
    634    27      305.5720   453      178.0000      306.9249   151681   72.43%
    639    32      305.3313   451      178.0000      306.9249   156068   72.43%
    643    36      304.7103   436      178.0000      306.9249   162291   72.43%
    647    40      303.1217   394      178.0000      306.9249   167500   72.43%
    651    44      303.1146   392      178.0000      306.9249   169970   72.43%
Elapsed time = 44.31 sec. (59865.27 ticks, tree = 0.20 MB, solutions = 6)
    657    50      303.7187   401      178.0000      306.9249   173695   72.43%
    659    52      303.6736   419      178.0000      306.9249   175816   72.43%
    667    60      302.9289   402      178.0000      306.9249   180675   72.43%
    674    67      302.4387   383      178.0000      306.9249   185770   72.43%
    681    74      294.5251   359      178.0000      306.9249   192276   72.43%
    689    82      287.3632   329      178.0000      306.9249   198209   72.43%
    705    98      278.7917   278      178.0000      306.9249   202838   72.43%
    729   122      285.5183   320      178.0000      306.9249   206025   72.43%
    763   156      282.4630   285      178.0000      306.9249   210924   72.43%
    795   185      265.1250   217      178.0000      306.9249   216055   72.43%
Elapsed time = 51.60 sec. (70468.00 ticks, tree = 2.00 MB, solutions = 6)
    832   202      305.4941   448      178.0000      306.8729   224304   72.40%
    839   209      305.0107   461      178.0000      306.8729   229166   72.40%
    845   215      297.2597   430      178.0000      306.8729   234920   72.40%
    853   223      300.1891   387      178.0000      306.8729   240521   72.40%
    866   236      296.7627   385      178.0000      306.8729   246263   72.40%
    878   248      292.5714   351      178.0000      306.8729   252650   72.40%
    885   255      291.5649   368      178.0000      306.8729   258095   72.40%
    892   262      291.0041   338      178.0000      306.8729   260450   72.40%
    909   279      288.7670   366      178.0000      306.8729   266085   72.40%
    928   298      285.3972   321      178.0000      306.8729   271879   72.40%
Elapsed time = 59.75 sec. (82127.07 ticks, tree = 3.83 MB, solutions = 6)
    956   317      282.0091   278      178.0000      306.8729   274847   72.40%
   1022   365      243.9024   154      178.0000      306.8729   280599   72.40%
   1027   366      301.9454   452      178.0000      306.7224   284437   72.32%
   1037   376      299.7025   439      178.0000      306.7224   289500   72.32%
   1049   388      298.9162   416      178.0000      306.7224   292698   72.32%
   1081   420      294.8356   342      178.0000      306.7224   297923   72.32%
   1097   432    infeasible            178.0000      306.7224   302963   72.32%
   1102   433      306.2974   468      178.0000      306.6521   307780   72.28%
   1129   460      303.4849   388      178.0000      306.6521   312673   72.28%
   1153   484      301.9865   366      178.0000      306.6521   318688   72.28%
Elapsed time = 67.65 sec. (93291.76 ticks, tree = 5.25 MB, solutions = 6)
   1178   507    infeasible            178.0000      306.6521   326057   72.28%
   1213   538      299.1168   423      178.0000      306.2969   332019   72.08%
   1226   551      295.9597   400      178.0000      306.2969   337621   72.08%
   1247   572      281.0946   319      178.0000      306.2969   344155   72.08%
   1258   583      286.0452   362      178.0000      306.2969   347298   72.08%
   1289   609      270.2455   287      178.0000      306.2969   352977   72.08%
   1342   650      306.1582   444      178.0000      306.2877   359115   72.07%
   1355   663      302.9055   401      178.0000      306.2877   363503   72.07%
   1376   684      299.5016   388      178.0000      306.2877   366247   72.07%
   1409   717      296.2520   333      178.0000      306.2877   370272   72.07%
Elapsed time = 75.27 sec. (104095.12 ticks, tree = 8.62 MB, solutions = 6)
   1444   744      300.5451   450      178.0000      306.1560   379229   72.00%
   1459   759      298.1898   411      178.0000      306.1560   383314   72.00%
   1473   773      294.0201   363      178.0000      306.1560   388754   72.00%
   1489   789      290.7816   345      178.0000      306.1560   393465   72.00%
   1514   813      271.5940   276      178.0000      306.1560   398703   72.00%
   1527   820      297.9803   401      178.0000      305.8898   405538   71.85%
   1546   839      291.2926   364      178.0000      305.8898   410685   71.85%
   1569   862      287.7214   341      178.0000      305.8898   413646   71.85%
   1611   904      266.9026   250      178.0000      305.8898   419343   71.85%
   1696   981      300.7454   473      178.0000      305.7811   426654   71.79%
Elapsed time = 83.65 sec. (116022.92 ticks, tree = 12.30 MB, solutions = 6)
   1701   986      298.8517   435      178.0000      305.7811   431566   71.79%
   1717  1002      282.5531   349      178.0000      305.7811   437964   71.79%
   1733  1018      277.6264   308      178.0000      305.7811   444554   71.79%
   1759  1044      268.0225   257      178.0000      305.7811   452211   71.79%
   1780  1057      304.7447   469      178.0000      305.7803   458611   71.79%
   1789  1065      293.4660   395      178.0000      305.7803   465260   71.79%
   1806  1082      283.1560   377      178.0000      305.7803   471820   71.79%
   1820  1096      277.7800   326      178.0000      305.7803   478648   71.79%
   1853  1127      268.5598   260      178.0000      305.7803   485252   71.79%
   1895  1159    infeasible            178.0000      305.7803   493078   71.79%
Elapsed time = 91.42 sec. (127106.96 ticks, tree = 14.30 MB, solutions = 6)
   1900  1160      302.1581   419      178.0000      305.7275   496799   71.76%
   1921  1181      294.4682   371      178.0000      305.7275   503197   71.76%
   1964  1219      264.0465   205      178.0000      305.7275   510089   71.76%
   1969  1220      304.5909   531      178.0000      305.6782   513784   71.73%
   1976  1227      296.1185   446      178.0000      305.6782   518258   71.73%
   1993  1244      288.9471   350      178.0000      305.6782   523483   71.73%
   2006  1257      277.1316   315      178.0000      305.6782   530093   71.73%
   2042  1285      299.7334   464      178.0000      305.6411   537415   71.71%
   2049  1292      298.5284   450      178.0000      305.6411   539175   71.71%
   2121  1352      303.4351   456      178.0000      305.6317   559095   71.70%
Elapsed time = 101.64 sec. (140993.29 ticks, tree = 18.08 MB, solutions = 6)
   2206  1437      275.1657   264      178.0000      305.6317   577379   71.70%
   2257  1482      280.5818   317      178.0000      305.5955   599373   71.68%
   2397  1617      247.3517   120      178.0000      305.5955   624219   71.68%
   2458  1666      301.9033   461      178.0000      305.5767   646251   71.67%
*  2509+ 1713                          184.0000      305.5767            66.07%
   2509  1715      281.7637   302      184.0000      305.5767   659585   66.07%
   2593  1795      278.9784   336      184.0000      305.5699   679825   66.07%
*  2609+ 1809                          186.0000      305.5699            64.28%
*  2609+ 1809                          188.0000      305.5699            62.54%
*  2609+ 1809                          192.0000      305.5699            59.15%
*  2609+ 1809                          194.0000      305.5699            57.51%
   2666  1860      302.9603   468      194.0000      305.5566   693688   57.50%
   2708  1898      299.9603   456      194.0000      305.4941   713254   57.47%
   2720  1910      295.0976   366      194.0000      305.4941   717867   57.47%
   2772  1962      275.9768   298      194.0000      305.4941   743140   57.47%
Elapsed time = 133.07 sec. (180382.76 ticks, tree = 27.39 MB, solutions = 11)
   2805  1990      294.8265   440      194.0000      305.4941   765652   57.47%
*  2809+ 1992                          202.0000      305.4941            51.23%
Starting limited solution polishing.
   2830  2015      287.2544   326      202.0000      305.4941   778516   51.23%
   2880  2061      301.1004   402      202.0000      305.4923   796030   51.23%
*  2909+ 2088                          210.0000      305.4923            45.47%
   2934  2115      272.0095   282      210.0000      305.4923   817211   45.47%
   2969  2146      291.6091   407      210.0000      305.4923   838576   45.47%
Advanced basis not built.

GUB cover cuts applied:  210
Clique cuts applied:  111
Cover cuts applied:  49
Implied bound cuts applied:  90
Flow cuts applied:  17
Mixed integer rounding cuts applied:  120
Zero-half cuts applied:  118
Lift and project cuts applied:  25
Gomory fractional cuts applied:  8

Root node processing (before b&c):
  Real time             =    2.51 sec. (3231.83 ticks)
Sequential b&c:
  Real time             =  147.50 sec. (199554.25 ticks)
                          ------------
Total (root+branch&cut) =  150.00 sec. (202786.08 ticks)

Solution pool: 14 solutions saved.

MIP - Time limit exceeded, integer feasible:  Objective =  2.1000000000e+02
Current MIP best bound =  3.0549225045e+02 (gap = 95.4923, 45.47%)
Solution time =  150.00 sec.  Iterations = 851576  Nodes = 3009 (2185)
Deterministic time = 202786.09 ticks  (1351.89 ticks/sec)


Incumbent solution
Variable Name           Solution Value
F                           210.000000
y22                           1.000000
y29                           1.000000
y41                           1.000000
y43                           1.000000
y58                           1.000000
y74                           1.000000
y81                           1.000000
y86                           1.000000
y93                           1.000000
y106                          1.000000
y124                          1.000000
y143                          1.000000
y148                          1.000000
y149                          1.000000
y154                          1.000000
y159                          1.000000
y162                          1.000000
y169                          1.000000
y172                          1.000000
y176                          1.000000
y184                          1.000000
y196                          1.000000
y198                          1.000000
y209                          1.000000
y227                          1.000000
y245                          1.000000
y247                          1.000000
y254                          1.000000
y264                          1.000000
y266                          1.000000
y270                          1.000000
y271                          1.000000
y273                          1.000000
x19x74x1                      1.000000
x19x184x1                     1.000000
x150x266x1                    2.000000
x164x154x1                    1.000000
x164x245x1                    1.000000
x173x58x1                     1.000000
x201x264x1                    1.000000
x210x58x1                     1.000000
x223x184x1                    1.000000
x9x22x2                       1.000000
x9x169x2                      1.000000
x18x154x2                     1.000000
x18x271x2                     1.000000
x76x264x2                     1.000000
x130x22x2                     1.000000
x130x227x2                    1.000000
x134x93x2                     1.000000
x223x245x2                    1.000000
x271x86x2                     1.000000
x76x172x3                     1.000000
x134x172x3                    1.000000
x173x169x3                    1.000000
x197x41x3                     1.000000
x197x93x3                     1.000000
x201x227x3                    1.000000
x205x271x3                    1.000000
x210x198x3                    1.000000
x255x74x3                     1.000000
x271x43x3                     1.000000
x22x273x2                     2.000000
x86x29x2                      2.000000
x29x0x2                       2.000000
x43x41x3                      1.000000
x41x0x3                       2.000000
x43x148x3                     1.000000
x58x254x1                     2.000000
x74x106x1                     1.000000
x74x198x3                     1.000000
x149x81x1                     1.000000
x81x0x1                       1.000000
x172x81x3                     1.000000
x81x0x3                       1.000000
x93x247x2                     1.000000
x93x162x3                     1.000000
x106x196x1                    1.000000
x245x106x2                    1.000000
x106x196x2                    1.000000
x154x124x1                    1.000000
x124x148x1                    1.000000
x154x124x2                    1.000000
x124x159x2                    1.000000
x198x143x3                    2.000000
x143x0x3                      2.000000
x148x0x1                      1.000000
x148x0x3                      1.000000
x184x149x1                    2.000000
x149x0x1                      1.000000
x169x159x2                    1.000000
x159x0x2                      2.000000
x169x162x3                    1.000000
x162x0x3                      2.000000
x172x270x3                    1.000000
x264x176x1                    1.000000
x266x176x1                    1.000000
x176x0x1                      2.000000
x196x0x1                      1.000000
x196x0x2                      1.000000
x227x209x2                    1.000000
x209x0x2                      1.000000
x227x209x3                    1.000000
x209x0x3                      1.000000
x245x247x1                    1.000000
x247x0x1                      1.000000
x247x0x2                      1.000000
x254x0x1                      2.000000
x264x270x2                    1.000000
x266x0x1                      1.000000
x270x0x2                      1.000000
x270x0x3                      1.000000
x273x0x2                      2.000000
s9                            5.960000
s10                           9.430000
z9z10z2                       1.000000
s22                           7.380000
z9z22z2                       1.000000
s29                           9.460000
z9z29z2                       1.000000
s31                           9.390000
s46                           8.020000
s48                           9.380000
s64                           7.180000
s68                           7.460000
z9z68z2                       1.000000
s69                           9.230000
z9z69z2                       1.000000
s86                           7.730000
z9z86z2                       1.000000
s91                           7.800000
s106                          8.101961
s124                          8.070309
s154                          6.770000
s159                          9.250000
z9z159z2                      1.000000
s169                          7.520000
z9z169z2                      1.000000
s170                          7.580000
s196                          9.450000
s207                          8.840000
s209                          8.775597
s227                          7.440601
s239                          8.360000
s245                          7.020584
s247                          8.820000
s264                          7.854508
s270                          9.400000
s273                          9.080000
z9z273z2                      1.000000
s277                          8.230000
z9z277z2                      1.000000
s18                           4.767586
z18z10z2                      1.000000
z18z22z2                      1.000000
z18z29z2                      1.000000
z18z46z2                      1.000000
z18z68z2                      1.000000
z18z69z2                      1.000000
s75                           6.190000
s85                           7.240000
z18z86z2                      1.000000
s88                           6.000000
s93                           6.998806
s118                          6.000000
z18z154z2                     1.000000
z18z159z2                     1.000000
s208                          6.000000
s221                          6.000000
s226                          6.000000
s246                          6.643193
s271                          6.305337
z18z271z2                     1.000000
z18z273z2                     1.000000
z18z277z2                     1.000000
s19                           5.099978
s21                           7.620000
s36                           7.170000
z19z36z1                      1.000000
s58                           7.004476
z19z58z1                      1.000000
s74                           6.604689
z19z74z1                      1.000000
s81                           9.380000
s109                          7.250000
s148                          9.160000
s149                          8.110000
z19z149z1                     1.000000
s156                          7.810000
s165                          9.190000
z19z165z1                     1.000000
s171                          6.370000
s176                          9.010000
z19z176z1                     1.000000
s177                          6.010000
s184                          6.706407
z19z184z1                     1.000000
s190                          7.320000
s220                          8.070000
z19z220z1                     1.000000
s243                          6.703991
s254                          8.520000
z19z254z1                     1.000000
s266                          7.541421
z19z266z1                     1.000000
s59                           6.000000
s76                           5.736667
z76z10z2                      1.000000
z76z22z2                      1.000000
z76z29z2                      1.000000
s41                           9.050000
z76z41z3                      1.000000
s43                           7.831622
z76z43z3                      1.000000
z76z68z2                      1.000000
z76z69z2                      1.000000
s73                           7.470000
z76z73z3                      1.000000
s97                           8.280000
s135                          6.160000
s143                          9.450000
z76z143z3                     1.000000
z76z159z2                     1.000000
s162                          8.700000
z76z162z3                     1.000000
s172                          7.670000
z76z172z3                     1.000000
s198                          7.918306
s230                          7.620000
z76z230z3                     1.000000
s259                          8.560000
z76z259z3                     1.000000
z76z264z2                     1.000000
z76z273z2                     1.000000
z76z277z2                     1.000000
s130                          5.960000
z130z10z2                     1.000000
z130z22z2                     1.000000
z130z29z2                     1.000000
z130z68z2                     1.000000
z130z69z2                     1.000000
z130z159z2                    1.000000
z130z227z2                    1.000000
z130z273z2                    1.000000
z130z277z2                    1.000000
s134                          5.790000
z134z10z2                     1.000000
z134z22z2                     1.000000
z134z29z2                     1.000000
z134z41z3                     1.000000
z134z43z3                     1.000000
z134z68z2                     1.000000
z134z69z2                     1.000000
z134z73z3                     1.000000
z134z93z2                     1.000000
z134z143z3                    1.000000
z134z159z2                    1.000000
z134z162z3                    1.000000
z134z172z3                    1.000000
z134z230z3                    1.000000
z134z259z3                    1.000000
z134z273z2                    1.000000
z134z277z2                    1.000000
s150                          5.984526
z150z149z1                    1.000000
z150z165z1                    1.000000
z150z176z1                    1.000000
z150z254z1                    1.000000
z150z266z1                    1.000000
s164                          5.199237
z164z36z1                     1.000000
z164z58z1                     1.000000
z164z149z1                    1.000000
z164z154z1                    1.000000
z164z165z1                    1.000000
z164z176z1                    1.000000
z164z220z1                    1.000000
z164z245z1                    1.000000
z164z254z1                    1.000000
z164z266z1                    1.000000
s173                          5.550000
z173z36z1                     1.000000
z173z41z3                     1.000000
z173z43z3                     1.000000
z173z58z1                     1.000000
z173z73z3                     1.000000
z173z97z3                     1.000000
z173z143z3                    1.000000
z173z149z1                    1.000000
z173z162z3                    1.000000
z173z165z1                    1.000000
z173z169z3                    1.000000
z173z172z3                    1.000000
z173z176z1                    1.000000
z173z220z1                    1.000000
z173z230z3                    1.000000
z173z254z1                    1.000000
z173z259z3                    1.000000
z173z266z1                    1.000000
s197                          5.743330
z197z41z3                     1.000000
z197z43z3                     1.000000
z197z73z3                     1.000000
z197z93z3                     1.000000
z197z97z3                     1.000000
z197z143z3                    1.000000
z197z162z3                    1.000000
z197z172z3                    1.000000
z197z230z3                    1.000000
z197z259z3                    1.000000
s201                          5.701305
z201z36z1                     1.000000
z201z41z3                     1.000000
z201z43z3                     1.000000
z201z73z3                     1.000000
z201z143z3                    1.000000
z201z149z1                    1.000000
z201z162z3                    1.000000
z201z165z1                    1.000000
z201z172z3                    1.000000
z201z176z1                    1.000000
z201z227z3                    1.000000
z201z230z3                    1.000000
z201z254z1                    1.000000
z201z259z3                    1.000000
z201z264z1                    1.000000
z201z266z1                    1.000000
s205                          3.966568
z205z41z3                     1.000000
z205z43z3                     1.000000
z205z73z3                     1.000000
z205z97z3                     1.000000
z205z135z3                    1.000000
z205z143z3                    1.000000
z205z162z3                    1.000000
z205z172z3                    1.000000
z205z198z3                    1.000000
z205z230z3                    1.000000
z205z259z3                    1.000000
z205z271z3                    1.000000
z208z10z2                     1.000000
z208z29z2                     1.000000
z208z69z2                     1.000000
z208z143z3                    1.000000
z208z159z2                    1.000000
z208z273z2                    1.000000
z208z277z2                    1.000000
s210                          5.738738
z210z41z3                     1.000000
z210z43z3                     1.000000
z210z58z1                     1.000000
z210z73z3                     1.000000
z210z97z3                     1.000000
z210z143z3                    1.000000
z210z149z1                    1.000000
z210z162z3                    1.000000
z210z165z1                    1.000000
z210z172z3                    1.000000
z210z176z1                    1.000000
z210z198z3                    1.000000
z210z230z3                    1.000000
z210z254z1                    1.000000
z210z259z3                    1.000000
z210z266z1                    1.000000
s223                          5.333662
z223z10z2                     1.000000
z223z22z2                     1.000000
z223z29z2                     1.000000
z223z36z1                     1.000000
z223z46z2                     1.000000
z223z68z2                     1.000000
z223z69z2                     1.000000
z223z149z1                    1.000000
z223z159z2                    1.000000
z223z165z1                    1.000000
z223z176z1                    1.000000
z223z184z1                    1.000000
z223z220z1                    1.000000
z223z245z2                    1.000000
z223z254z1                    1.000000
z223z266z1                    1.000000
z223z273z2                    1.000000
z223z277z2                    1.000000
z246z10z2                     1.000000
z246z29z2                     1.000000
z246z143z3                    1.000000
s255                          3.010000
z255z41z3                     1.000000
z255z43z3                     1.000000
z255z73z3                     1.000000
z255z74z3                     1.000000
z255z97z3                     1.000000
z255z135z3                    1.000000
z255z143z3                    1.000000
z255z162z3                    1.000000
z255z172z3                    1.000000
z255z198z3                    1.000000
z255z230z3                    1.000000
z255z259z3                    1.000000
z271z10z2                     1.000000
z271z29z2                     1.000000
z271z41z3                     1.000000
z271z43z3                     1.000000
z271z69z2                     1.000000
z271z86z2                     1.000000
z271z143z3                    1.000000
z271z159z2                    1.000000
z271z273z2                    1.000000
z271z277z2                    1.000000
z21z143z3                     1.000000
z22z273z2                     1.000000
s34                           6.000000
z36z176z1                     1.000000
z43z41z3                      1.000000
z43z143z3                     1.000000
z43z148z3                     1.000000
z46z29z2                      1.000000
z58z254z1                     1.000000
z74z106z1                     1.000000
z74z143z3                     1.000000
z74z165z1                     1.000000
z74z198z3                     1.000000
z75z10z2                      1.000000
z75z29z2                      1.000000
z85z10z2                      1.000000
z85z29z2                      1.000000
z85z143z3                     1.000000
z86z10z2                      1.000000
z86z29z2                      1.000000
z88z10z2                      1.000000
z88z29z2                      1.000000
z88z143z3                     1.000000
z93z10z2                      1.000000
z93z29z2                      1.000000
z93z143z3                     1.000000
z93z162z3                     1.000000
z93z247z2                     1.000000
z106z196z1                    1.000000
z106z196z2                    1.000000
z118z10z2                     1.000000
z118z29z2                     1.000000
z118z159z2                    1.000000
z118z165z1                    1.000000
z124z148z1                    1.000000
z124z159z2                    1.000000
z135z143z3                    1.000000
z149z81z1                     1.000000
z154z10z2                     1.000000
z154z29z2                     1.000000
z154z124z1                    1.000000
z154z124z2                    1.000000
z154z165z1                    1.000000
z169z159z2                    1.000000
z169z162z3                    1.000000
z171z143z3                    1.000000
z171z165z1                    1.000000
z172z41z3                     1.000000
z172z81z3                     1.000000
z172z270z3                    1.000000
z177z143z3                    1.000000
z177z165z1                    1.000000
z184z149z1                    1.000000
z184z165z1                    1.000000
z198z143z3                    1.000000
z221z10z2                     1.000000
z221z29z2                     1.000000
z221z41z3                     1.000000
z221z69z2                     1.000000
z221z143z3                    1.000000
z221z159z2                    1.000000
z221z273z2                    1.000000
z221z277z2                    1.000000
z226z10z2                     1.000000
z226z29z2                     1.000000
z226z159z2                    1.000000
z227z10z2                     1.000000
z227z29z2                     1.000000
z227z143z3                    1.000000
z227z209z2                    1.000000
z227z209z3                    1.000000
z243z143z3                    1.000000
z243z165z1                    1.000000
z245z10z2                     1.000000
z245z29z2                     1.000000
z245z106z2                    1.000000
z245z247z1                    1.000000
z264z176z1                    1.000000
z264z270z2                    1.000000
z266z176z1                    1.000000
s268                          6.000000
All other variables in the range 1-4753 are 0.
